
Gurobi 11.0.3 (linux64) logging started Tue 19 Nov 2024 01:37:39 AM CST

Set parameter LogFile to value "/home/dlcole3/graph_abstraction/hierarchical_graphs/git_storage/CS1/HP_low_reserves/gurobi_logs/serial/logfile_DA_31.log"
Set parameter TimeLimit to value 900

Gurobi 11.0.3 (linux64) logging started Tue 19 Nov 2024 01:37:40 AM CST

Set parameter LogFile to value "/home/dlcole3/graph_abstraction/hierarchical_graphs/git_storage/CS1/HP_low_reserves/gurobi_logs/serial/logfile_DA_31.log"
Gurobi Optimizer version 11.0.3 build v11.0.3rc0 (linux64 - "Ubuntu 18.04.3 LTS")

CPU model: Intel(R) Xeon(R) CPU E5-2698 v4 @ 2.20GHz, instruction set [SSE2|AVX|AVX2]
Thread count: 40 physical cores, 80 logical processors, using up to 20 threads

Optimize a model with 35850 rows, 31725 columns and 164765 nonzeros
Model fingerprint: 0xa82f7ed6
Variable types: 19950 continuous, 11775 integer (11775 binary)
Coefficient statistics:
  Matrix range     [5e-02, 2e+04]
  Objective range  [1e+00, 8e+04]
  Bounds range     [5e-02, 2e+05]
  RHS range        [9e-16, 7e+03]
Presolve removed 4298 rows and 5712 columns
Presolve time: 0.78s
Presolved: 31552 rows, 26013 columns, 146551 nonzeros
Variable types: 15443 continuous, 10570 integer (10570 binary)
Found heuristic solution: objective 1.078715e+09
Found heuristic solution: objective 8.835043e+08
Found heuristic solution: objective 6.523746e+08
Deterministic concurrent LP optimizer: primal and dual simplex
Showing primal log only...

Concurrent spin time: 0.00s

Solved with dual simplex

Use crossover to convert LP symmetric solution to basic solution...

Root relaxation: objective 1.127570e+07, 12738 iterations, 1.10 seconds (0.75 work units)

    Nodes    |    Current Node    |     Objective Bounds      |     Work
 Expl Unexpl |  Obj  Depth IntInf | Incumbent    BestBd   Gap | It/Node Time

     0     0 1.1276e+07    0   58 6.5237e+08 1.1276e+07  98.3%     -    3s
H    0     0                    6.523597e+08 1.1276e+07  98.3%     -    3s
H    0     0                    1.574656e+07 1.1277e+07  28.4%     -    3s
     0     0 1.1277e+07    0   99 1.5747e+07 1.1277e+07  28.4%     -    3s
     0     0 1.1287e+07    0  106 1.5747e+07 1.1287e+07  28.3%     -    4s
     0     0 1.1287e+07    0  109 1.5747e+07 1.1287e+07  28.3%     -    4s
     0     0 1.1287e+07    0  109 1.5747e+07 1.1287e+07  28.3%     -    6s
     0     2 1.1287e+07    0  109 1.5747e+07 1.1287e+07  28.3%     -    7s
H   31    52                    1.347989e+07 1.1291e+07  16.2%   164   10s
H   46    52                    1.253553e+07 1.1291e+07  9.92%   128   10s
H  154   175                    1.224244e+07 1.1293e+07  7.75%  94.3   15s
H  155   175                    1.164169e+07 1.1293e+07  2.99%  95.0   15s
H  206   227                    1.134299e+07 1.1293e+07  0.44%  91.2   25s
H  207   227                    1.132914e+07 1.1293e+07  0.32%  91.3   25s
H  219   227                    1.132759e+07 1.1293e+07  0.30%  91.9   25s
H  220   227                    1.132627e+07 1.1293e+07  0.29%  91.6   25s
H  222   227                    1.132328e+07 1.1293e+07  0.27%  91.2   25s
   790   572 1.1320e+07   37   42 1.1323e+07 1.1293e+07  0.27%  50.2   30s
H 1320   809                    1.132328e+07 1.1296e+07  0.25%  44.2   34s
  1336   858     cutoff   10      1.1323e+07 1.1296e+07  0.25%  44.2   35s
* 2306  1275              43    1.132299e+07 1.1299e+07  0.21%  40.8   39s
  2384  1341 1.1301e+07    8   61 1.1323e+07 1.1299e+07  0.21%  41.1   40s
H 3205  1516                    1.131987e+07 1.1299e+07  0.18%  39.9   42s
H 3472  1299                    1.131892e+07 1.1299e+07  0.17%  39.0   45s
  3476  1264 1.1308e+07   13   53 1.1319e+07 1.1299e+07  0.17%  38.9   50s
  3529  1309 1.1299e+07   18   63 1.1319e+07 1.1299e+07  0.17%  44.7   55s
H 3690  1263                    1.131710e+07 1.1299e+07  0.16%  48.0   62s
H 3691  1202                    1.131688e+07 1.1299e+07  0.15%  47.9   62s
H 3696  1144                    1.131687e+07 1.1299e+07  0.15%  48.0   62s
H 3713  1083                    1.131687e+07 1.1299e+07  0.15%  48.1   62s
  4021  1043 1.1315e+07   34   35 1.1317e+07 1.1299e+07  0.15%  49.0   65s
  4738   941 1.1316e+07   46   21 1.1317e+07 1.1299e+07  0.15%  49.7   71s
H 4753   885                    1.131684e+07 1.1299e+07  0.15%  49.7   71s
  5434   884 1.1315e+07   41   51 1.1317e+07 1.1299e+07  0.15%  48.4   75s
H 6126   696                    1.131684e+07 1.1299e+07  0.15%  47.5   80s

Cutting planes:
  Gomory: 4

Explored 7561 nodes (355996 simplex iterations) in 84.79 seconds (82.89 work units)
Thread count was 20 (of 80 available processors)

Solution count 10: 1.13168e+07 1.13168e+07 1.13169e+07 ... 1.13276e+07

Optimal solution found (tolerance 1.00e-03)
Best objective 1.131684191524e+07, best bound 1.130625863141e+07, gap 0.0935%

User-callback calls 27464, time in user-callback 0.03 sec
